clingo version 5.6.2
Reading from ...etition/0012-graph_colouring-130-0.asp ...
Solving...
Answer: 1

SATISFIABLE

Models       : 1+
Calls        : 1
Time         : 306.992s (Solving: 306.81s 1st Model: 306.81s Unsat: 0.00s)
CPU Time     : 306.907s

Choices      : 8116293 
Conflicts    : 7418259  (Analyzed: 7418259)
Restarts     : 15097    (Average: 491.37 Last: 2866)
Model-Level  : 20.0    
Problems     : 1        (Average Length: 0.00 Splits: 0)
Lemmas       : 7418259  (Deleted: 7396622)
  Binary     : 9        (Ratio:   0.00%)
  Ternary    : 18       (Ratio:   0.00%)
  Conflict   : 7418259  (Average Length:   36.1 Ratio: 100.00%) 
  Loop       : 0        (Average Length:    0.0 Ratio:   0.00%) 
  Other      : 0        (Average Length:    0.0 Ratio:   0.00%) 
Backjumps    : 7418259  (Average:  1.08 Max:  13 Sum: 7980442)
  Executed   : 7418259  (Average:  1.08 Max:  13 Sum: 7980442 Ratio: 100.00%)
  Bounded    : 0        (Average:  0.00 Max:   0 Sum:      0 Ratio:   0.00%)

Rules        : 17448   
Atoms        : 3202    
Bodies       : 1280    
Equivalences : 2540     (Atom=Atom: 10 Body=Body: 633 Other: 1897)
Tight        : Yes
Variables    : 769      (Eliminated:    0 Frozen:    0)
Constraints  : 7099     (Binary:  89.3% Ternary:   0.0% Other:  10.6%)

